200 200
37 57
16 63
48 23
50 41
49 86
27 53
21 18
64 14
7 18
38 21
26 4
33 17
25 77
12 6
28 71
93 20
5 10
54 10
23 18
10 30
58 29
14 41
24 13
18 74
15 72
9 61
16 3
11 7
4 8
12 4
23 4
27 23
31 12
45 11
18 20
5 12
15 8
20 20
32 9
34 51
55 52
17 33
59 19
6 11
26 31
26 20
29 26
23 11
57 15
